data;


param FN:= 12;
param D:= 100;
param U_Original:=
         1         1        2.684721e-01
         2         1        6.873579e-02
         3         1        7.533732e-01
         4         1       -1.901939e+00
         5         1        1.534977e+00
         6         1       -3.789773e-01
         7         1       -7.149133e-01
         8         1       -2.145589e-01
         9         1       -6.825711e-03
        10         1        9.869303e-01
        11         1       -2.928009e-03
        12         1        9.448399e-02
        13         1       -6.180690e-01
        14         1        2.639576e+00
        15         1       -3.316074e-01
        16         1        3.775863e-01
        17         1        5.717978e-01
        18         1        9.037908e-02
        19         1       -7.169359e-01
        20         1       -1.144245e+00
        21         1       -1.196101e+00
        22         1        2.693269e+00
        23         1       -2.137751e+00
        24         1        2.569651e-01
        25         1        7.991369e-01
        26         1        6.306328e-01
        27         1       -1.111775e+00
        28         1        5.017126e-01
        29         1       -1.464030e+00
        30         1        7.299624e-01
        31         1        7.819614e-01
        32         1        9.065055e-01
        33         1       -1.546190e+00
        34         1       -4.333694e-02
        35         1        4.923561e-01
        36         1        7.005945e-01
        37         1        5.555049e-01
        38         1       -8.884310e-01
        39         1       -3.234872e-01
        40         1        2.284409e+00
        41         1       -1.162013e+00
        42         1       -1.956144e+00
        43         1       -1.315762e+00
        44         1       -2.785744e-01
        45         1       -1.147574e+00
        46         1        1.297106e-01
        47         1       -1.999385e+00
        48         1        3.632492e-01
        49         1       -3.566765e-01
        50         1        1.563719e+00
        51         1       -2.096736e+00
        52         1       -6.676201e-01
        53         1        6.897567e-01
        54         1       -6.886775e-01
        55         1       -2.538127e-01
        56         1        2.513854e+00
        57         1       -7.667331e-01
        58         1       -1.702636e+00
        59         1       -1.908492e+00
        60         1        1.273239e+00
        61         1        6.228477e-01
        62         1       -3.781439e-01
        63         1       -1.089794e+00
        64         1       -3.921873e-01
        65         1        1.127517e+00
        66         1        2.906070e-01
        67         1        2.448033e-01
        68         1        4.340975e-01
        69         1       -9.722912e-01
        70         1        7.642909e-01
        71         1        1.963455e+00
        72         1        5.786917e-01
        73         1       -1.516000e+00
        74         1       -2.893952e-02
        75         1        4.583215e-01
        76         1       -2.403009e+00
        77         1       -2.461640e-01
        78         1       -6.825061e-01
        79         1        8.561585e-01
        80         1        5.213982e-01
        81         1       -1.029625e+00
        82         1       -2.407001e-01
        83         1        1.096889e+00
        84         1       -1.001967e-01
        85         1       -1.488722e+00
        86         1       -2.955804e-01
        87         1       -1.430567e+00
        88         1        1.359758e+00
        89         1        2.504140e+00
        90         1        6.037527e-01
        91         1       -7.196743e-01
        92         1        3.099743e-01
        93         1        1.283945e+00
        94         1       -8.234677e-01
        95         1       -1.178263e+00
        96         1       -7.621770e-01
        97         1       -1.508632e-01
        98         1       -8.390009e-01
        99         1       -1.023110e-02
       100         1        1.578169e-01
         1         2       -1.050044e+00
         2         2        3.938820e-01
         3         2       -8.784802e-02
         4         2       -1.057311e+00
         5         2       -1.447084e+00
         6         2       -8.280275e-01
         7         2       -1.152290e-01
         8         2       -7.150240e-01
         9         2        7.181770e-02
        10         2       -8.889248e-01
        11         2        1.378965e+00
        12         2        2.834598e-01
        13         2        9.240908e-01
        14         2       -2.942369e-01
        15         2        5.029315e-01
        16         2       -6.439075e-01
        17         2       -1.150056e-01
        18         2        4.963792e-01
        19         2       -9.680321e-01
        20         2        6.839289e-01
        21         2        1.339385e-01
        22         2        9.148067e-01
        23         2        6.776246e-01
        24         2       -7.440981e-01
        25         2       -9.233001e-01
        26         2       -2.004507e-01
        27         2       -1.263716e+00
        28         2        6.563123e-01
        29         2        1.415565e+00
        30         2        8.958318e-01
        31         2       -1.942996e+00
        32         2       -4.730080e-02
        33         2        1.039143e+00
        34         2        8.470032e-01
        35         2        5.878229e-01
        36         2        6.330205e-01
        37         2        2.138281e-01
        38         2       -1.303802e+00
        39         2        6.819755e-01
        40         2       -8.113201e-01
        41         2        2.811901e-01
        42         2        1.457333e+00
        43         2        1.842108e+00
        44         2        2.189236e-01
        45         2        3.929329e-01
        46         2       -4.262874e-02
        47         2        6.101633e-01
        48         2       -7.928015e-01
        49         2       -1.607912e-01
        50         2       -6.951288e-01
        51         2        5.140420e-02
        52         2       -2.179770e+00
        53         2        2.499675e+00
        54         2       -9.638376e-02
        55         2        6.675905e-01
        56         2        1.878109e+00
        57         2       -1.109556e+00
        58         2        2.063934e+00
        59         2        7.618198e-01
        60         2       -1.189519e+00
        61         2        8.677840e-01
        62         2        7.549399e-01
        63         2       -5.659782e-01
        64         2       -1.595970e+00
        65         2        1.006653e+00
        66         2        1.545002e-02
        67         2       -3.908066e-01
        68         2       -9.576210e-01
        69         2       -9.169690e-02
        70         2       -1.145140e+00
        71         2        8.892875e-03
        72         2        3.301041e-01
        73         2        2.126552e+00
        74         2       -4.977388e-01
        75         2       -1.980080e-01
        76         2        1.616725e+00
        77         2        6.855641e-01
        78         2       -9.390905e-01
        79         2       -1.001832e+00
        80         2       -4.386249e-01
        81         2        1.576869e+00
        82         2        1.224228e-01
        83         2        1.322956e+00
        84         2        8.656127e-01
        85         2        6.495808e-01
        86         2        8.115153e-02
        87         2       -3.328946e-01
        88         2       -1.022932e+00
        89         2        1.041386e+00
        90         2        1.152785e+00
        91         2       -2.752085e-01
        92         2        2.346837e-01
        93         2        3.582713e-01
        94         2       -1.416073e+00
        95         2       -3.301414e-01
        96         2       -2.796139e-02
        97         2       -1.297419e+00
        98         2        1.701281e+00
        99         2       -6.972977e-01
       100         2        1.827102e+00
         1         3       -1.352490e+00
         2         3        6.192649e-02
         3         3        1.431629e-01
         4         3       -7.723318e-01
         5         3       -8.925724e-01
         6         3       -1.008670e-01
         7         3        2.657697e-01
         8         3        2.140511e-01
         9         3       -4.092326e-02
        10         3        2.426662e-01
        11         3       -2.771060e-01
        12         3       -1.109313e+00
        13         3       -4.516334e-01
        14         3        4.741533e-02
        15         3        2.729337e-01
        16         3       -1.457359e+00
        17         3        8.292517e-01
        18         3        4.986650e-02
        19         3       -1.001945e+00
        20         3       -3.035652e+00
        21         3       -3.550930e-01
        22         3       -1.371500e+00
        23         3       -4.341664e-01
        24         3        5.234277e-01
        25         3        1.250524e+00
        26         3        1.293080e+00
        27         3        7.816105e-01
        28         3       -3.019511e-01
        29         3        6.964611e-01
        30         3        9.922266e-01
        31         3        1.301090e+00
        32         3        1.746866e-02
        33         3       -4.169147e-01
        34         3        6.121552e-01
        35         3        1.689539e+00
        36         3        1.332185e+00
        37         3        1.679090e+00
        38         3        1.106896e+00
        39         3        1.273790e+00
        40         3       -1.567413e-02
        41         3        2.807027e-02
        42         3       -1.861396e-01
        43         3        1.223303e+00
        44         3       -4.929739e-01
        45         3        8.288953e-01
        46         3       -1.760198e+00
        47         3       -8.013496e-01
        48         3        5.249737e-01
        49         3        6.697531e-02
        50         3        1.545070e+00
        51         3       -2.703756e+00
        52         3       -5.756611e-01
        53         3        1.748969e+00
        54         3        9.362918e-02
        55         3       -5.340925e-01
        56         3        1.254756e+00
        57         3       -7.521614e-01
        58         3       -7.980527e-01
        59         3       -1.162759e+00
        60         3       -9.377992e-01
        61         3       -8.649063e-01
        62         3       -1.519917e-01
        63         3       -3.471149e-01
        64         3        9.374647e-01
        65         3        9.921503e-01
        66         3       -3.458698e-01
        67         3        6.617371e-03
        68         3       -1.502657e+00
        69         3       -1.472956e-01
        70         3       -7.124731e-01
        71         3       -4.987428e-01
        72         3       -8.475347e-01
        73         3       -6.049727e-01
        74         3       -9.483186e-01
        75         3       -1.652562e-01
        76         3       -2.395673e+00
        77         3       -3.595168e-01
        78         3       -2.137441e-01
        79         3       -4.329604e-01
        80         3        1.345248e+00
        81         3       -2.401454e-01
        82         3        5.640705e-01
        83         3        2.559878e-01
        84         3       -3.052056e-01
        85         3       -1.716154e+00
        86         3        6.936687e-01
        87         3        1.193509e+00
        88         3        4.990038e-01
        89         3        8.115149e-01
        90         3        1.505989e+00
        91         3       -1.449851e+00
        92         3        1.121002e-02
        93         3        3.043953e-01
        94         3        1.083709e-01
        95         3        8.432579e-01
        96         3        1.265845e+00
        97         3        4.811359e-01
        98         3        1.257257e+00
        99         3        6.192506e-01
       100         3       -1.756093e-01
         1         4        8.439736e-01
         2         4        1.190354e+00
         3         4       -1.182929e+00
         4         4        6.242417e-01
         5         4        7.943370e-01
         6         4        6.070871e-01
         7         4       -3.689172e-01
         8         4        3.587494e-01
         9         4       -7.576834e-01
        10         4       -6.418949e-01
        11         4        1.131144e+00
        12         4       -5.876362e-01
        13         4       -1.181674e+00
        14         4        1.894778e+00
        15         4       -1.359387e+00
        16         4       -4.973824e-02
        17         4       -1.850481e+00
        18         4        1.257960e+00
        19         4        8.407403e-02
        20         4       -2.530558e+00
        21         4        1.137028e+00
        22         4       -5.896539e-01
        23         4       -2.232616e+00
        24         4        5.026807e-01
        25         4        3.157484e-01
        26         4        4.649218e-01
        27         4       -6.242636e-01
        28         4       -2.455900e-02
        29         4       -6.171406e-01
        30         4       -2.050675e-02
        31         4        4.688892e-01
        32         4        4.803719e-01
        33         4       -1.486599e+00
        34         4       -1.014219e+00
        35         4       -2.650899e-01
        36         4       -3.532058e-01
        37         4       -3.007139e-01
        38         4       -5.468815e-01
        39         4        4.839547e-01
        40         4       -1.508768e+00
        41         4        1.703926e+00
        42         4       -5.845173e-01
        43         4       -5.773751e-01
        44         4       -8.713636e-01
        45         4       -3.378897e-01
        46         4        1.453852e+00
        47         4        6.733740e-01
        48         4       -7.542423e-02
        49         4       -9.574062e-01
        50         4       -5.925548e-01
        51         4       -2.264587e-01
        52         4        1.217915e+00
        53         4        4.723281e-01
        54         4       -3.980665e-01
        55         4        8.604485e-01
        56         4        1.387793e-01
        57         4        1.422558e-01
        58         4        6.234923e-01
        59         4        6.718347e-01
        60         4       -6.675219e-01
        61         4        1.669076e+00
        62         4       -5.738002e-01
        63         4        2.013478e+00
        64         4       -4.629857e-01
        65         4       -3.416209e-01
        66         4        1.131837e+00
        67         4        8.437990e-01
        68         4        1.618019e+00
        69         4        7.717641e-01
        70         4        9.833317e-01
        71         4       -8.463645e-02
        72         4       -1.739970e+00
        73         4       -1.358894e+00
        74         4        9.476349e-01
        75         4       -5.270703e-01
        76         4        4.840845e-01
        77         4       -8.580161e-01
        78         4       -1.364943e-01
        79         4       -5.737818e-01
        80         4       -1.157075e+00
        81         4        1.244525e-02
        82         4       -7.969819e-01
        83         4        2.871680e-02
        84         4        1.016357e+00
        85         4       -5.935999e-01
        86         4        5.688756e-01
        87         4       -1.450991e+00
        88         4       -3.549789e-01
        89         4       -1.180604e+00
        90         4        1.922406e-01
        91         4        4.034883e-01
        92         4       -1.184225e+00
        93         4        1.442989e+00
        94         4       -8.009071e-02
        95         4        7.613268e-01
        96         4       -2.778171e-02
        97         4        4.378108e-01
        98         4       -3.396834e-01
        99         4       -3.036862e-01
       100         4       -1.111615e-01
         1         5       -9.464608e-01
         2         5       -1.521843e-01
         3         5        1.182282e+00
         4         5       -6.626890e-01
         5         5        5.945179e-02
         6         5        3.717225e-01
         7         5        2.041604e+00
         8         5        4.002801e-02
         9         5       -2.206984e+00
        10         5        1.227237e-01
        11         5       -6.414578e-01
        12         5        1.180843e+00
        13         5        5.069639e-01
        14         5       -2.110348e+00
        15         5       -3.926001e-01
        16         5        1.460498e+00
        17         5        7.166144e-01
        18         5        1.664133e+00
        19         5       -1.991233e-01
        20         5        1.342325e+00
        21         5       -5.424475e-01
        22         5        2.008440e+00
        23         5        1.728771e-01
        24         5       -2.256420e+00
        25         5       -1.299735e+00
        26         5       -1.960735e+00
        27         5        2.097795e-01
        28         5       -3.553581e-01
        29         5       -1.301686e-01
        30         5        1.264836e-02
        31         5        6.168031e-02
        32         5        1.121427e+00
        33         5       -5.290929e-02
        34         5        2.159293e+00
        35         5        1.455176e+00
        36         5       -5.745518e-01
        37         5        1.206232e+00
        38         5        3.065838e-01
        39         5        1.553572e-01
        40         5       -9.090839e-01
        41         5       -2.279376e-01
        42         5       -3.322942e-01
        43         5        1.564145e+00
        44         5       -1.530142e+00
        45         5       -1.358593e+00
        46         5       -2.927490e-01
        47         5       -3.068070e-01
        48         5       -9.573981e-01
        49         5        1.588150e-01
        50         5        1.150528e+00
        51         5       -3.145010e-01
        52         5        1.558739e+00
        53         5       -1.429725e+00
        54         5        1.309709e+00
        55         5        1.053043e+00
        56         5       -1.575251e+00
        57         5        4.114907e-01
        58         5       -1.279348e+00
        59         5        9.513497e-02
        60         5        1.513366e-01
        61         5       -7.048927e-01
        62         5        1.425847e-01
        63         5        8.705307e-02
        64         5       -1.807227e+00
        65         5       -1.277012e+00
        66         5        7.434149e-01
        67         5        9.608791e-02
        68         5        2.784213e-01
        69         5       -9.290474e-01
        70         5        1.621948e-01
        71         5       -1.521929e+00
        72         5        7.868681e-02
        73         5       -4.870825e-01
        74         5        1.036624e+00
        75         5       -1.372257e-01
        76         5        1.826556e-01
        77         5        1.073304e+00
        78         5        8.527729e-01
        79         5       -1.191252e-01
        80         5       -1.192252e+00
        81         5        4.190973e-01
        82         5       -4.733062e-01
        83         5       -6.871313e-01
        84         5        1.281411e+00
        85         5       -9.307766e-01
        86         5       -9.515549e-01
        87         5       -2.785246e-01
        88         5       -1.045085e+00
        89         5       -9.512328e-01
        90         5        1.832651e+00
        91         5        2.775519e-01
        92         5       -6.013547e-01
        93         5        4.082731e-01
        94         5        2.134535e-01
        95         5       -9.463587e-01
        96         5       -5.407922e-01
        97         5       -3.036486e-01
        98         5       -1.564342e+00
        99         5       -4.102899e-01
       100         5       -6.045142e-01
;
param X_Original:=
    1       -4.855596e-01
    2        6.287582e-02
    3       -1.478518e+00
    4       -4.636702e-01
    5       -3.660492e-01
    6       -8.666469e-01
    7        5.022019e-01
    8       -3.919444e-01
    9        9.614132e-01
   10        2.704570e-02
   11       -6.487720e-01
   12        1.793418e-01
   13       -7.578794e-01
   14        5.625198e-01
   15        5.383985e-01
   16        3.547526e+00
   17       -9.126116e-01
   18        1.184438e+00
   19        5.607012e-01
   20       -1.215816e+00
   21       -4.394895e-01
   22       -1.864800e+00
   23       -1.104918e+00
   24        1.348814e+00
   25       -3.799965e-01
   26        1.234731e+00
   27       -3.840084e-01
   28       -1.252220e+00
   29       -3.194810e-01
   30       -8.879294e-02
   31        1.256690e+00
   32       -1.014907e+00
   33       -1.123194e+00
   34        6.306288e-01
   35        3.954059e-01
   36       -3.670903e+00
   37        1.172197e+00
   38       -1.279645e-01
   39       -4.363797e-01
   40       -3.080349e-02
   41        1.142622e+00
   42        6.500936e-01
   43        1.040319e-01
   44       -3.326200e-01
   45        4.194454e-01
   46       -2.124922e+00
   47       -2.618395e-02
   48        1.869986e+00
   49        3.837368e-01
   50       -3.447960e+00
   51       -1.236549e+00
   52       -1.284213e+00
   53       -1.726953e-01
   54        1.828255e+00
   55        3.101076e-02
   56        1.007562e+00
   57       -2.302408e-01
   58       -4.861814e-01
   59       -1.286833e+00
   60        3.553610e-01
   61       -1.777858e+00
   62       -1.855916e-01
   63        6.817514e-02
   64       -3.350015e+00
   65       -4.532964e+00
   66        1.961898e+00
   67        4.494848e-01
   68       -1.873770e-01
   69       -9.203746e-01
   70       -2.197260e-01
   71       -8.781569e-01
   72        1.912433e-01
   73       -2.151899e-01
   74        1.048681e+00
   75        8.251781e-01
   76        1.976263e-01
   77       -1.848363e+00
   78       -1.365426e-01
   79       -3.617984e-01
   80       -9.958726e-01
   81        2.934203e+00
   82        2.628079e-01
   83       -2.652413e+00
   84        8.767760e-01
   85       -4.918271e-01
   86       -6.161536e-01
   87       -1.147426e+00
   88        7.866977e-01
   89       -5.089717e-01
   90        9.418910e-01
   91        3.597910e+00
   92        2.277269e+00
   93       -2.800756e+00
   94        5.393136e-01
   95        7.922668e-01
   96        1.748338e-01
   97        7.454484e-01
   98        4.888078e-01
   99       -4.217247e-01
  100       -5.444440e-01
;
param outliervec_original :=
    1    1
    2    1
    3    1
    4    1
    5    1
    6    1
    7    1
    8    0
    9    1
   10    1
   11    0
   12    1
   13    1
   14    1
   15    0
   16    0
   17    1
   18    0
   19    1
   20    1
   21    1
   22    1
   23    1
   24    1
   25    1
   26    1
   27    1
   28    1
   29    1
   30    1
   31    1
   32    1
   33    1
   34    1
   35    1
   36    0
   37    1
   38    0
   39    1
   40    1
   41    1
   42    1
   43    1
   44    1
   45    1
   46    1
   47    1
   48    1
   49    1
   50    0
   51    1
   52    1
   53    1
   54    1
   55    1
   56    1
   57    1
   58    1
   59    1
   60    1
   61    1
   62    1
   63    1
   64    0
   65    0
   66    1
   67    1
   68    1
   69    1
   70    1
   71    1
   72    1
   73    1
   74    1
   75    1
   76    1
   77    1
   78    1
   79    1
   80    1
   81    0
   82    1
   83    0
   84    1
   85    1
   86    1
   87    1
   88    1
   89    1
   90    1
   91    0
   92    1
   93    0
   94    1
   95    1
   96    1
   97    1
   98    1
   99    1
  100    1
;
param d:= 57;
param r:=5;
param p:=0.860000;
param M:=1000;
param U:=
         1         1        2.684721e-01
         2         1        6.873579e-02
         3         1       -1.901939e+00
         4         1        1.534977e+00
         5         1       -7.149133e-01
         6         1        9.869303e-01
         7         1       -2.928009e-03
         8         1       -6.180690e-01
         9         1       -3.316074e-01
        10         1       -7.169359e-01
        11         1       -1.144245e+00
        12         1       -1.196101e+00
        13         1        2.693269e+00
        14         1        2.569651e-01
        15         1        6.306328e-01
        16         1        5.017126e-01
        17         1       -1.464030e+00
        18         1        7.299624e-01
        19         1        7.819614e-01
        20         1        9.065055e-01
        21         1       -4.333694e-02
        22         1        4.923561e-01
        23         1        5.555049e-01
        24         1        2.284409e+00
        25         1       -1.315762e+00
        26         1       -2.785744e-01
        27         1       -1.147574e+00
        28         1        1.297106e-01
        29         1       -1.999385e+00
        30         1        3.632492e-01
        31         1       -3.566765e-01
        32         1       -2.096736e+00
        33         1        6.897567e-01
        34         1       -7.667331e-01
        35         1       -1.702636e+00
        36         1       -1.908492e+00
        37         1        1.273239e+00
        38         1        6.228477e-01
        39         1       -3.781439e-01
        40         1       -1.089794e+00
        41         1        2.448033e-01
        42         1        7.642909e-01
        43         1        1.963455e+00
        44         1       -1.516000e+00
        45         1        4.583215e-01
        46         1       -6.825061e-01
        47         1        8.561585e-01
        48         1       -2.407001e-01
        49         1       -1.488722e+00
        50         1        1.359758e+00
        51         1        2.504140e+00
        52         1        6.037527e-01
        53         1       -8.234677e-01
        54         1       -1.178263e+00
        55         1       -1.508632e-01
        56         1       -8.390009e-01
        57         1        1.578169e-01
         1         2       -1.050044e+00
         2         2        3.938820e-01
         3         2       -1.057311e+00
         4         2       -1.447084e+00
         5         2       -1.152290e-01
         6         2       -8.889248e-01
         7         2        1.378965e+00
         8         2        9.240908e-01
         9         2        5.029315e-01
        10         2       -9.680321e-01
        11         2        6.839289e-01
        12         2        1.339385e-01
        13         2        9.148067e-01
        14         2       -7.440981e-01
        15         2       -2.004507e-01
        16         2        6.563123e-01
        17         2        1.415565e+00
        18         2        8.958318e-01
        19         2       -1.942996e+00
        20         2       -4.730080e-02
        21         2        8.470032e-01
        22         2        5.878229e-01
        23         2        2.138281e-01
        24         2       -8.113201e-01
        25         2        1.842108e+00
        26         2        2.189236e-01
        27         2        3.929329e-01
        28         2       -4.262874e-02
        29         2        6.101633e-01
        30         2       -7.928015e-01
        31         2       -1.607912e-01
        32         2        5.140420e-02
        33         2        2.499675e+00
        34         2       -1.109556e+00
        35         2        2.063934e+00
        36         2        7.618198e-01
        37         2       -1.189519e+00
        38         2        8.677840e-01
        39         2        7.549399e-01
        40         2       -5.659782e-01
        41         2       -3.908066e-01
        42         2       -1.145140e+00
        43         2        8.892875e-03
        44         2        2.126552e+00
        45         2       -1.980080e-01
        46         2       -9.390905e-01
        47         2       -1.001832e+00
        48         2        1.224228e-01
        49         2        6.495808e-01
        50         2       -1.022932e+00
        51         2        1.041386e+00
        52         2        1.152785e+00
        53         2       -1.416073e+00
        54         2       -3.301414e-01
        55         2       -1.297419e+00
        56         2        1.701281e+00
        57         2        1.827102e+00
         1         3       -1.352490e+00
         2         3        6.192649e-02
         3         3       -7.723318e-01
         4         3       -8.925724e-01
         5         3        2.657697e-01
         6         3        2.426662e-01
         7         3       -2.771060e-01
         8         3       -4.516334e-01
         9         3        2.729337e-01
        10         3       -1.001945e+00
        11         3       -3.035652e+00
        12         3       -3.550930e-01
        13         3       -1.371500e+00
        14         3        5.234277e-01
        15         3        1.293080e+00
        16         3       -3.019511e-01
        17         3        6.964611e-01
        18         3        9.922266e-01
        19         3        1.301090e+00
        20         3        1.746866e-02
        21         3        6.121552e-01
        22         3        1.689539e+00
        23         3        1.679090e+00
        24         3       -1.567413e-02
        25         3        1.223303e+00
        26         3       -4.929739e-01
        27         3        8.288953e-01
        28         3       -1.760198e+00
        29         3       -8.013496e-01
        30         3        5.249737e-01
        31         3        6.697531e-02
        32         3       -2.703756e+00
        33         3        1.748969e+00
        34         3       -7.521614e-01
        35         3       -7.980527e-01
        36         3       -1.162759e+00
        37         3       -9.377992e-01
        38         3       -8.649063e-01
        39         3       -1.519917e-01
        40         3       -3.471149e-01
        41         3        6.617371e-03
        42         3       -7.124731e-01
        43         3       -4.987428e-01
        44         3       -6.049727e-01
        45         3       -1.652562e-01
        46         3       -2.137441e-01
        47         3       -4.329604e-01
        48         3        5.640705e-01
        49         3       -1.716154e+00
        50         3        4.990038e-01
        51         3        8.115149e-01
        52         3        1.505989e+00
        53         3        1.083709e-01
        54         3        8.432579e-01
        55         3        4.811359e-01
        56         3        1.257257e+00
        57         3       -1.756093e-01
         1         4        8.439736e-01
         2         4        1.190354e+00
         3         4        6.242417e-01
         4         4        7.943370e-01
         5         4       -3.689172e-01
         6         4       -6.418949e-01
         7         4        1.131144e+00
         8         4       -1.181674e+00
         9         4       -1.359387e+00
        10         4        8.407403e-02
        11         4       -2.530558e+00
        12         4        1.137028e+00
        13         4       -5.896539e-01
        14         4        5.026807e-01
        15         4        4.649218e-01
        16         4       -2.455900e-02
        17         4       -6.171406e-01
        18         4       -2.050675e-02
        19         4        4.688892e-01
        20         4        4.803719e-01
        21         4       -1.014219e+00
        22         4       -2.650899e-01
        23         4       -3.007139e-01
        24         4       -1.508768e+00
        25         4       -5.773751e-01
        26         4       -8.713636e-01
        27         4       -3.378897e-01
        28         4        1.453852e+00
        29         4        6.733740e-01
        30         4       -7.542423e-02
        31         4       -9.574062e-01
        32         4       -2.264587e-01
        33         4        4.723281e-01
        34         4        1.422558e-01
        35         4        6.234923e-01
        36         4        6.718347e-01
        37         4       -6.675219e-01
        38         4        1.669076e+00
        39         4       -5.738002e-01
        40         4        2.013478e+00
        41         4        8.437990e-01
        42         4        9.833317e-01
        43         4       -8.463645e-02
        44         4       -1.358894e+00
        45         4       -5.270703e-01
        46         4       -1.364943e-01
        47         4       -5.737818e-01
        48         4       -7.969819e-01
        49         4       -5.935999e-01
        50         4       -3.549789e-01
        51         4       -1.180604e+00
        52         4        1.922406e-01
        53         4       -8.009071e-02
        54         4        7.613268e-01
        55         4        4.378108e-01
        56         4       -3.396834e-01
        57         4       -1.111615e-01
         1         5       -9.464608e-01
         2         5       -1.521843e-01
         3         5       -6.626890e-01
         4         5        5.945179e-02
         5         5        2.041604e+00
         6         5        1.227237e-01
         7         5       -6.414578e-01
         8         5        5.069639e-01
         9         5       -3.926001e-01
        10         5       -1.991233e-01
        11         5        1.342325e+00
        12         5       -5.424475e-01
        13         5        2.008440e+00
        14         5       -2.256420e+00
        15         5       -1.960735e+00
        16         5       -3.553581e-01
        17         5       -1.301686e-01
        18         5        1.264836e-02
        19         5        6.168031e-02
        20         5        1.121427e+00
        21         5        2.159293e+00
        22         5        1.455176e+00
        23         5        1.206232e+00
        24         5       -9.090839e-01
        25         5        1.564145e+00
        26         5       -1.530142e+00
        27         5       -1.358593e+00
        28         5       -2.927490e-01
        29         5       -3.068070e-01
        30         5       -9.573981e-01
        31         5        1.588150e-01
        32         5       -3.145010e-01
        33         5       -1.429725e+00
        34         5        4.114907e-01
        35         5       -1.279348e+00
        36         5        9.513497e-02
        37         5        1.513366e-01
        38         5       -7.048927e-01
        39         5        1.425847e-01
        40         5        8.705307e-02
        41         5        9.608791e-02
        42         5        1.621948e-01
        43         5       -1.521929e+00
        44         5       -4.870825e-01
        45         5       -1.372257e-01
        46         5        8.527729e-01
        47         5       -1.191252e-01
        48         5       -4.733062e-01
        49         5       -9.307766e-01
        50         5       -1.045085e+00
        51         5       -9.512328e-01
        52         5        1.832651e+00
        53         5        2.134535e-01
        54         5       -9.463587e-01
        55         5       -3.036486e-01
        56         5       -1.564342e+00
        57         5       -6.045142e-01
;

param theta:=
    1       -1.553970e+00
    2        2.659862e-01
    3       -1.695791e+00
    4       -6.168910e-01
    5        1.234164e+00
;
param X_true:=
    1       -9.085802e-02
    2       -1.028760e+00
    3        2.783173e+00
    4       -1.674324e+00
    5        3.377991e+00
    6       -1.634579e+00
    7       -6.487720e-01
    8        3.325431e+00
    9        5.383985e-01
   10        2.258412e+00
   11        1.032592e+01
   12        1.127676e+00
   13        1.227942e+00
   14       -4.579981e+00
   15       -5.930789e+00
   16       -5.184251e-01
   17        1.690598e+00
   18       -2.551024e+00
   19       -4.151675e+00
   20       -3.634264e-01
   21        2.544913e+00
   22       -1.512549e+00
   23       -1.978475e+00
   24       -3.931998e+00
   25        2.747130e+00
   26       -2.455948e-02
   27       -9.872750e-01
   28        1.514656e+00
   29        3.833357e+00
   30       -2.801468e+00
   31        1.184138e+00
   32        7.608937e+00
   33       -5.428652e+00
   34        2.591806e+00
   35        2.584866e+00
   36        4.844179e+00
   37       -1.057014e-01
   38       -1.168790e+00
   39        1.575873e+00
   40        9.967440e-01
   41       -8.977793e-01
   42       -6.898256e-01
   43       -4.029486e+00
   44        4.183243e+00
   45       -3.290099e-01
   46        2.309423e+00
   47       -6.549514e-01
   48       -6.415855e-01
   49        4.614734e+00
   50       -4.301201e+00
   51       -5.437055e+00
   52       -1.043245e+00
   53        1.031986e+00
   54       -1.325581e+00
   55       -1.570781e+00
   56       -2.097410e+00
   57       -1.372810e-01
;
param X:=
    1       -4.855596e-01
    2        6.287582e-02
    3       -4.636702e-01
    4       -3.660492e-01
    5        5.022019e-01
    6        2.704570e-02
    7       -6.487720e-01
    8       -7.578794e-01
    9        5.383985e-01
   10        5.607012e-01
   11       -1.215816e+00
   12       -4.394895e-01
   13       -1.864800e+00
   14        1.348814e+00
   15        1.234731e+00
   16       -1.252220e+00
   17       -3.194810e-01
   18       -8.879294e-02
   19        1.256690e+00
   20       -1.014907e+00
   21        6.306288e-01
   22        3.954059e-01
   23        1.172197e+00
   24       -3.080349e-02
   25        1.040319e-01
   26       -3.326200e-01
   27        4.194454e-01
   28       -2.124922e+00
   29       -2.618395e-02
   30        1.869986e+00
   31        3.837368e-01
   32       -1.236549e+00
   33       -1.726953e-01
   34       -2.302408e-01
   35       -4.861814e-01
   36       -1.286833e+00
   37        3.553610e-01
   38       -1.777858e+00
   39       -1.855916e-01
   40        6.817514e-02
   41        4.494848e-01
   42       -2.197260e-01
   43       -8.781569e-01
   44       -2.151899e-01
   45        8.251781e-01
   46       -1.365426e-01
   47       -3.617984e-01
   48        2.628079e-01
   49       -4.918271e-01
   50        7.866977e-01
   51       -5.089717e-01
   52        9.418910e-01
   53        5.393136e-01
   54        7.922668e-01
   55        7.454484e-01
   56        4.888078e-01
   57       -5.444440e-01
;
param outliervec:=
    1    1
    2    1
    3    1
    4    1
    5    1
    6    1
    7    0
    8    1
    9    0
   10    1
   11    1
   12    1
   13    1
   14    1
   15    1
   16    1
   17    1
   18    1
   19    1
   20    1
   21    1
   22    1
   23    1
   24    1
   25    1
   26    1
   27    1
   28    1
   29    1
   30    1
   31    1
   32    1
   33    1
   34    1
   35    1
   36    1
   37    1
   38    1
   39    1
   40    1
   41    1
   42    1
   43    1
   44    1
   45    1
   46    1
   47    1
   48    1
   49    1
   50    1
   51    1
   52    1
   53    1
   54    1
   55    1
   56    1
   57    1
; 
param greedy_time :=         2.190623e-01
;